c Result of efficient AIG-to-CNF conversion using package CNF
p cnf 540 1997
2 -3 -413 -436 0
2 411 -413 -436 0
-2 436 0
-2 413 0
-2 3 -411 0
-3 4 381 0
-3 -4 -381 0
3 -4 381 0
3 4 -381 0
4 5 -6 0
4 -6 -362 0
4 5 -362 0
-4 6 362 0
-4 -5 6 0
-4 -5 362 0
5 -536 0
5 -538 0
5 -537 0
-5 536 537 538 0
6 7 -330 0
6 -7 330 0
-6 -7 -330 0
-6 7 330 0
7 -8 -300 0
-7 8 0
-7 300 0
8 -9 -270 0
-8 9 0
-8 270 0
9 -10 -238 0
-9 10 0
-9 238 0
10 -11 205 0
-10 11 0
-10 -205 0
11 -12 175 0
-11 12 0
-11 -175 0
12 -13 144 0
-12 13 0
-12 -144 0
13 -14 -113 0
-13 14 0
-13 113 0
14 -15 79 0
-14 15 0
-14 -79 0
15 -16 45 0
-15 16 0
-15 -45 0
16 17 -29 0
-16 -17 0
-16 29 0
-17 18 -19 0
-17 5 18 0
17 -18 0
17 -5 19 0
18 -537 -538 0
18 536 -538 -539 0
18 -537 -539 0
18 -536 537 538 0
-18 -536 537 -538 0
-18 536 537 538 0
-18 536 537 539 0
-18 -537 538 539 0
-19 20 21 24 0
19 -20 0
19 -24 0
19 -21 0
20 536 537 538 -539 0
-20 539 0
-20 -538 0
-20 -536 0
-20 -537 0
21 536 -22 0
-21 -536 0
-21 22 0
22 -537 23 0
-22 537 0
-22 -23 0
-23 538 539 0
23 -538 0
23 -539 0
24 -23 -25 0
-24 23 0
-24 25 0
-25 26 27 0
25 -26 0
25 -27 0
26 -536 -537 0
-26 536 0
-26 537 0
27 536 537 -28 0
-27 28 0
-27 -537 0
-27 -536 0
28 -538 -539 0
-28 538 0
-28 539 0
29 -20 43 0
29 -30 43 0
-29 -43 0
-29 20 30 0
30 -31 42 0
-30 31 0
-30 -42 0
-31 5 32 0
31 -5 0
31 -32 0
-32 -33 -41 0
-32 33 41 0
32 33 -41 0
32 -33 41 0
-33 34 40 0
33 -34 0
33 -40 0
34 35 -37 0
-34 -35 0
-34 37 0
-35 23 36 0
35 -23 0
35 -36 0
-36 536 537 0
36 -536 0
36 -537 0
37 38 -39 0
37 -38 39 0
-37 -38 -39 0
-37 38 39 0
38 -538 -26 0
-38 538 0
-38 26 0
39 535 -21 0
39 -535 21 0
-39 -535 -21 0
-39 535 21 0
40 -35 37 0
-40 35 0
-40 -37 0
41 -36 38 0
-41 36 0
-41 -38 0
42 -5 -32 0
-42 5 0
-42 32 0
43 -20 -44 0
-43 20 0
-43 44 0
44 24 -30 0
44 -24 30 0
-44 -24 -30 0
-44 24 30 0
-45 46 47 0
-45 -46 -47 0
45 -46 47 0
45 46 -47 0
46 -17 -29 0
-46 17 0
-46 29 0
-47 43 48 0
-47 -43 -48 0
47 -43 48 0
47 43 -48 0
-48 49 50 0
-48 -49 -50 0
48 -49 50 0
48 49 -50 0
49 -5 24 -31 30 0
-49 -30 0
-49 31 0
-49 5 0
-49 -24 0
-50 -31 -51 0
-50 31 51 0
50 31 -51 0
50 -31 51 0
51 52 -59 0
51 -52 59 0
-51 -52 -59 0
-51 52 59 0
52 -53 56 0
52 -5 54 56 0
-52 -56 0
-52 53 -54 0
-52 5 53 0
53 -537 538 -539 0
-53 537 0
-53 -538 0
-53 539 0
-54 -19 -55 0
-54 19 55 0
54 19 -55 0
54 -19 55 0
55 -538 0
55 -536 537 0
55 -537 539 0
-55 -537 538 -539 0
-55 536 537 538 0
-56 35 34 0
-56 34 57 -58 0
-56 34 -57 58 0
56 -34 0
56 -35 57 58 0
56 -35 -57 -58 0
57 19 -55 0
-57 -19 0
-57 55 0
58 20 -44 0
58 -20 44 0
-58 -20 -44 0
-58 20 44 0
59 34 -60 0
59 -34 60 0
-59 -34 -60 0
-59 34 60 0
60 61 -62 0
60 -61 62 0
-60 -61 -62 0
-60 61 62 0
61 -57 -58 0
-61 57 0
-61 58 0
62 43 -63 0
62 -43 63 0
-62 -43 -63 0
-62 43 63 0
63 -64 77 0
63 64 -77 0
-63 64 77 0
-63 -64 -77 0
-64 65 66 0
-64 -65 -66 0
64 -65 66 0
64 65 -66 0
65 -538 36 0
-65 538 0
-65 -36 0
-66 -67 -76 0
-66 67 76 0
66 67 -76 0
66 -67 76 0
-67 -35 -68 0
-67 35 68 0
67 35 -68 0
67 -35 68 0
68 69 -70 0
68 -69 70 0
-68 -69 -70 0
-68 69 70 0
69 -38 -39 0
-69 38 0
-69 39 0
70 71 -72 0
70 -71 72 0
-70 -71 -72 0
-70 71 72 0
71 536 537 -538 539 0
-71 -536 0
-71 -539 0
-71 538 0
-71 -537 0
72 73 -74 0
72 -73 74 0
-72 -73 -74 0
-72 73 74 0
73 -535 -21 0
-73 535 0
-73 21 0
74 534 -75 0
74 -534 75 0
-74 -534 -75 0
-74 534 75 0
75 536 -53 0
-75 -536 0
-75 53 0
76 23 36 -37 0
76 -36 38 -37 0
-76 37 0
-76 -23 36 0
-76 -36 -38 0
-77 42 78 0
77 -42 0
77 -78 0
78 24 -31 0
-78 -24 0
-78 31 0
-79 80 81 0
-79 -80 -81 0
79 -80 81 0
79 80 -81 0
80 -46 47 0
-80 46 0
-80 -47 0
-81 82 83 0
-81 -82 -83 0
81 -82 83 0
81 82 -83 0
82 -43 48 0
-82 43 0
-82 -48 0
-83 84 85 0
-83 -84 -85 0
83 -84 85 0
83 84 -85 0
84 -49 50 0
-84 49 0
-84 -50 0
-85 86 87 0
-85 -86 -87 0
85 -86 87 0
85 86 -87 0
86 31 -51 0
-86 -31 0
-86 51 0
-87 88 89 0
-87 -88 -89 0
87 -88 89 0
87 88 -89 0
88 -52 -59 0
-88 52 0
-88 59 0
-89 90 91 0
-89 -90 -91 0
89 -90 91 0
89 90 -91 0
90 -34 -60 0
-90 34 0
-90 60 0
-91 92 93 0
-91 -92 -93 0
91 -92 93 0
91 92 -93 0
92 -61 -62 0
-92 61 0
-92 62 0
-93 94 109 0
93 -94 0
93 -109 0
94 -5 -95 0
-94 5 0
-94 95 0
95 -96 97 0
95 96 -97 0
-95 96 97 0
-95 -96 -97 0
-96 64 77 0
96 -64 0
96 -77 0
-97 -5 -98 0
-97 5 98 0
97 5 -98 0
97 -5 98 0
98 99 -100 0
98 -99 100 0
-98 -99 -100 0
-98 99 100 0
99 -538 36 66 0
-99 538 0
-99 -36 0
-99 -66 0
100 101 -108 0
100 -101 108 0
-100 -101 -108 0
-100 101 108 0
101 102 -107 0
101 -102 107 0
-101 -102 -107 0
-101 102 107 0
102 103 -106 0
102 -103 106 0
-102 -103 -106 0
-102 103 106 0
103 533 -104 0
103 -533 104 0
-103 -533 -104 0
-103 533 104 0
104 536 -105 0
-104 -536 0
-104 105 0
105 -537 -538 539 0
-105 537 0
-105 538 0
-105 -539 0
106 -534 -73 0
106 -73 -75 0
106 -534 -75 0
-106 534 75 0
-106 73 75 0
-106 534 73 0
107 -69 -71 0
107 -71 -72 0
107 -69 -72 0
-107 69 72 0
-107 71 72 0
-107 69 71 0
108 35 -68 0
108 -68 -76 0
108 35 -76 0
-108 -35 76 0
-108 68 76 0
-108 -35 68 0
109 5 -110 111 0
109 5 110 -111 0
-109 -5 0
-109 -110 -111 0
-109 110 111 0
110 -43 -63 0
-110 43 0
-110 63 0
111 94 -112 0
-111 -94 0
-111 112 0
-112 5 95 0
112 -5 0
112 -95 0
113 114 -115 0
113 -114 115 0
-113 -114 -115 0
-113 114 115 0
114 -80 81 0
-114 80 0
-114 -81 0
115 116 -117 0
115 -116 117 0
-115 -116 -117 0
-115 116 117 0
116 -82 83 0
-116 82 0
-116 -83 0
117 118 -119 0
117 -118 119 0
-117 -118 -119 0
-117 118 119 0
118 -84 85 0
-118 84 0
-118 -85 0
119 120 -121 0
119 -120 121 0
-119 -120 -121 0
-119 120 121 0
120 -86 87 0
-120 86 0
-120 -87 0
121 122 -123 0
121 -122 123 0
-121 -122 -123 0
-121 122 123 0
122 -88 89 0
-122 88 0
-122 -89 0
123 124 -125 0
123 -124 125 0
-123 -124 -125 0
-123 124 125 0
124 -90 91 0
-124 90 0
-124 -91 0
125 126 -142 0
125 -126 142 0
-125 -126 -142 0
-125 126 142 0
126 -5 127 0
126 5 -127 0
-126 5 127 0
-126 -5 -127 0
-127 -128 -141 0
-127 128 141 0
127 128 -141 0
127 -128 141 0
-128 5 129 0
-128 -5 -129 0
128 -5 129 0
128 5 -129 0
-129 130 140 0
-129 -130 -140 0
129 -130 140 0
129 130 -140 0
130 131 -132 0
130 -131 132 0
-130 -131 -132 0
-130 131 132 0
131 -99 -100 0
-131 99 0
-131 100 0
132 133 -134 0
132 -133 134 0
-132 -133 -134 0
-132 133 134 0
133 -101 -108 0
-133 101 0
-133 108 0
134 135 -136 0
134 -135 136 0
-134 -135 -136 0
-134 135 136 0
135 -102 -107 0
-135 102 0
-135 107 0
136 137 -139 0
136 -137 139 0
-136 -137 -139 0
-136 137 139 0
137 532 -138 0
137 -532 138 0
-137 -532 -138 0
-137 532 138 0
138 536 -537 -28 0
-138 28 0
-138 537 0
-138 -536 0
139 -533 -104 0
139 -104 -106 0
139 -533 -106 0
-139 533 106 0
-139 104 106 0
-139 533 104 0
-140 5 96 0
-140 96 -98 0
-140 5 -98 0
140 -96 98 0
140 -5 -96 0
140 -5 98 0
141 -5 -110 0
141 -110 -95 0
141 -5 -95 0
-141 5 95 0
-141 110 95 0
-141 5 110 0
142 94 -143 0
-142 -94 0
-142 143 0
-143 92 109 0
143 -92 0
143 -109 0
-144 145 146 0
-144 -145 -146 0
144 -145 146 0
144 145 -146 0
145 -114 -115 0
-145 114 0
-145 115 0
-146 147 148 0
-146 -147 -148 0
146 -147 148 0
146 147 -148 0
147 -116 -117 0
-147 116 0
-147 117 0
-148 149 150 0
-148 -149 -150 0
148 -149 150 0
148 149 -150 0
149 -118 -119 0
-149 118 0
-149 119 0
-150 151 152 0
-150 -151 -152 0
150 -151 152 0
150 151 -152 0
151 -120 -121 0
-151 120 0
-151 121 0
-152 153 154 0
-152 -153 -154 0
152 -153 154 0
152 153 -154 0
153 -122 -123 0
-153 122 0
-153 123 0
-154 -5 -155 0
-154 5 155 0
154 5 -155 0
154 -5 155 0
155 156 -157 0
155 -156 157 0
-155 -156 -157 0
-155 156 157 0
156 -124 -125 0
-156 124 0
-156 125 0
157 -158 174 0
157 158 -174 0
-157 158 174 0
-157 -158 -174 0
-158 -5 -159 0
-158 5 159 0
158 5 -159 0
158 -5 159 0
159 160 -173 0
159 -160 173 0
-159 -160 -173 0
-159 160 173 0
160 161 -162 0
160 -161 162 0
-160 -161 -162 0
-160 161 162 0
161 -130 140 0
-161 130 0
-161 -140 0
162 163 -164 0
162 -163 164 0
-162 -163 -164 0
-162 163 164 0
163 -131 -132 0
-163 131 0
-163 132 0
164 165 -166 0
164 -165 166 0
-164 -165 -166 0
-164 165 166 0
165 -133 -134 0
-165 133 0
-165 134 0
166 20 -167 0
166 -20 167 0
-166 -20 -167 0
-166 20 167 0
167 168 -169 0
167 -168 169 0
-167 -168 -169 0
-167 168 169 0
168 -135 -136 0
-168 135 0
-168 136 0
169 170 -172 0
169 -170 172 0
-169 -170 -172 0
-169 170 172 0
170 531 -171 0
170 -531 171 0
-170 -531 -171 0
-170 531 171 0
171 -536 537 23 0
-171 536 0
-171 -537 0
-171 -23 0
172 -532 -138 0
172 -138 -139 0
172 -532 -139 0
-172 532 139 0
-172 138 139 0
-172 532 138 0
173 -5 129 0
173 129 -141 0
173 -5 -141 0
-173 5 141 0
-173 -129 141 0
-173 5 -129 0
-174 5 127 0
-174 127 -142 0
-174 5 -142 0
174 -127 142 0
174 -5 -127 0
174 -5 142 0
-175 176 177 0
-175 -176 -177 0
175 -176 177 0
175 176 -177 0
176 -145 146 0
-176 145 0
-176 -146 0
-177 178 179 0
-177 -178 -179 0
177 -178 179 0
177 178 -179 0
178 -147 148 0
-178 147 0
-178 -148 0
-179 180 181 0
-179 -180 -181 0
179 -180 181 0
179 180 -181 0
180 -149 150 0
-180 149 0
-180 -150 0
-181 182 183 0
-181 -182 -183 0
181 -182 183 0
181 182 -183 0
182 -151 152 0
-182 151 0
-182 -152 0
-183 -184 -204 0
-183 184 204 0
183 184 -204 0
183 -184 204 0
-184 185 186 0
-184 -185 -186 0
184 -185 186 0
184 185 -186 0
185 -156 -157 0
-185 156 0
-185 157 0
-186 187 203 0
-186 -187 -203 0
186 -187 203 0
186 187 -203 0
187 188 -189 0
187 -188 189 0
-187 -188 -189 0
-187 188 189 0
188 -160 -173 0
-188 160 0
-188 173 0
189 190 -191 0
189 -190 191 0
-189 -190 -191 0
-189 190 191 0
190 -161 -162 0
-190 161 0
-190 162 0
191 192 -193 0
191 -192 193 0
-191 -192 -193 0
-191 192 193 0
192 -163 -164 0
-192 163 0
-192 164 0
193 194 -202 0
193 -194 202 0
-193 -194 -202 0
-193 194 202 0
194 20 -195 0
194 -20 195 0
-194 -20 -195 0
-194 20 195 0
195 196 -197 0
195 -196 197 0
-195 -196 -197 0
-195 196 197 0
196 -168 -169 0
-196 168 0
-196 169 0
197 27 -198 0
197 -27 198 0
-197 -27 -198 0
-197 27 198 0
198 199 -201 0
198 -199 201 0
-198 -199 -201 0
-198 199 201 0
199 530 -200 0
199 -530 200 0
-199 -530 -200 0
-199 530 200 0
200 -536 537 538 -539 0
-200 539 0
-200 -538 0
-200 536 0
-200 -537 0
201 -531 -171 0
201 -171 -172 0
201 -531 -172 0
-201 531 172 0
-201 171 172 0
-201 531 171 0
202 -20 -165 0
202 -165 -167 0
202 -20 -167 0
-202 20 167 0
-202 165 167 0
-202 20 165 0
-203 5 -159 0
-203 -159 174 0
-203 5 174 0
203 159 -174 0
203 -5 159 0
203 -5 -174 0
204 5 -153 0
204 -153 -155 0
204 5 -155 0
-204 153 155 0
-204 -5 153 0
-204 -5 155 0
-205 206 207 0
-205 -206 -207 0
205 -206 207 0
205 206 -207 0
206 -176 177 0
-206 176 0
-206 -177 0
-207 208 209 0
-207 -208 -209 0
207 -208 209 0
207 208 -209 0
208 -178 179 0
-208 178 0
-208 -179 0
-209 210 211 0
-209 -210 -211 0
209 -210 211 0
209 210 -211 0
210 -180 181 0
-210 180 0
-210 -181 0
-211 212 234 0
211 -212 0
211 -234 0
212 -5 -213 0
-212 5 0
-212 213 0
213 214 -215 0
213 -214 215 0
-213 -214 -215 0
-213 214 215 0
214 184 -204 0
-214 -184 0
-214 204 0
215 216 -217 0
215 -216 217 0
-215 -216 -217 0
-215 216 217 0
216 -185 186 0
-216 185 0
-216 -186 0
217 5 -218 0
217 -5 218 0
-217 -5 -218 0
-217 5 218 0
218 219 -220 0
218 -219 220 0
-218 -219 -220 0
-218 219 220 0
219 -187 203 0
-219 187 0
-219 -203 0
220 221 -222 0
220 -221 222 0
-220 -221 -222 0
-220 221 222 0
221 -188 -189 0
-221 188 0
-221 189 0
222 223 -224 0
222 -223 224 0
-222 -223 -224 0
-222 223 224 0
223 -190 -191 0
-223 190 0
-223 191 0
224 225 -226 0
224 -225 226 0
-224 -225 -226 0
-224 225 226 0
225 -192 -193 0
-225 192 0
-225 193 0
226 227 -233 0
226 -227 233 0
-226 -227 -233 0
-226 227 233 0
227 -228 229 0
227 228 -229 0
-227 228 229 0
-227 -228 -229 0
228 -27 -196 0
228 -196 -198 0
228 -27 -198 0
-228 27 198 0
-228 196 198 0
-228 27 196 0
-229 -230 -232 0
-229 230 232 0
229 230 -232 0
229 -230 232 0
230 529 -231 0
230 -529 231 0
-230 -529 -231 0
-230 529 231 0
231 -536 537 -538 539 0
-231 538 0
-231 -539 0
-231 536 0
-231 -537 0
232 -530 -200 0
232 -200 -201 0
232 -530 -201 0
-232 530 201 0
-232 200 201 0
-232 530 200 0
233 -20 -195 0
233 -195 -202 0
233 -20 -202 0
-233 20 202 0
-233 195 202 0
-233 20 195 0
234 5 -235 236 0
234 5 235 -236 0
-234 -5 0
-234 -235 -236 0
-234 235 236 0
235 -182 183 0
-235 182 0
-235 -183 0
236 212 -237 0
-236 -212 0
-236 237 0
-237 5 213 0
237 -5 0
237 -213 0
238 239 -240 0
238 -239 240 0
-238 -239 -240 0
-238 239 240 0
239 -206 207 0
-239 206 0
-239 -207 0
240 241 -242 0
240 -241 242 0
-240 -241 -242 0
-240 241 242 0
241 -208 209 0
-241 208 0
-241 -209 0
242 243 -268 0
242 -243 268 0
-242 -243 -268 0
-242 243 268 0
243 -5 244 0
243 5 -244 0
-243 5 244 0
-243 -5 -244 0
-244 -245 -266 0
-244 245 266 0
244 245 -266 0
244 -245 266 0
-245 246 247 0
-245 -246 -247 0
245 -246 247 0
245 246 -247 0
246 -214 -215 0
-246 214 0
-246 215 0
-247 -5 -248 0
-247 5 248 0
247 5 -248 0
247 -5 248 0
248 249 -265 0
248 -249 265 0
-248 -249 -265 0
-248 249 265 0
249 250 -251 0
249 -250 251 0
-249 -250 -251 0
-249 250 251 0
250 -219 -220 0
-250 219 0
-250 220 0
251 252 -253 0
251 -252 253 0
-251 -252 -253 0
-251 252 253 0
252 -221 -222 0
-252 221 0
-252 222 0
253 254 -255 0
253 -254 255 0
-253 -254 -255 0
-253 254 255 0
254 -223 -224 0
-254 223 0
-254 224 0
255 256 -257 0
255 -256 257 0
-255 -256 -257 0
-255 256 257 0
256 -225 -226 0
-256 225 0
-256 226 0
257 258 -259 0
257 -258 259 0
-257 -258 -259 0
-257 258 259 0
258 -227 -233 0
-258 227 0
-258 233 0
259 -260 261 0
259 260 -261 0
-259 260 261 0
-259 -260 -261 0
260 -228 -229 0
-260 228 0
-260 229 0
-261 -262 -264 0
-261 262 264 0
261 262 -264 0
261 -262 264 0
262 528 -263 0
262 -528 263 0
-262 -528 -263 0
-262 528 263 0
263 -536 537 -28 0
-263 536 0
-263 -537 0
-263 28 0
264 -529 -231 0
264 -231 -232 0
264 -529 -232 0
-264 529 232 0
-264 231 232 0
-264 529 231 0
265 -5 -216 0
265 -216 -218 0
265 -5 -218 0
-265 5 218 0
-265 216 218 0
-265 5 216 0
266 -237 -267 0
-266 237 0
-266 267 0
-267 235 212 0
267 -235 0
267 -212 0
268 212 -269 0
-268 -212 0
-268 269 0
-269 210 234 0
269 -210 0
269 -234 0
270 271 -272 0
270 -271 272 0
-270 -271 -272 0
-270 271 272 0
271 -239 -240 0
-271 239 0
-271 240 0
272 -5 273 0
272 5 -273 0
-272 5 273 0
-272 -5 -273 0
-273 274 275 0
-273 -274 -275 0
273 -274 275 0
273 274 -275 0
274 -241 -242 0
-274 241 0
-274 242 0
-275 276 299 0
-275 -276 -299 0
275 -276 299 0
275 276 -299 0
276 277 -278 0
276 -277 278 0
-276 -277 -278 0
-276 277 278 0
277 245 -266 0
-277 -245 0
-277 266 0
278 5 -279 0
278 -5 279 0
-278 -5 -279 0
-278 5 279 0
279 280 -298 0
279 -280 298 0
-279 -280 -298 0
-279 280 298 0
280 281 -282 0
280 -281 282 0
-280 -281 -282 0
-280 281 282 0
281 -249 -265 0
-281 249 0
-281 265 0
282 283 -284 0
282 -283 284 0
-282 -283 -284 0
-282 283 284 0
283 -250 -251 0
-283 250 0
-283 251 0
284 285 -286 0
284 -285 286 0
-284 -285 -286 0
-284 285 286 0
285 -252 -253 0
-285 252 0
-285 253 0
286 287 -288 0
286 -287 288 0
-286 -287 -288 0
-286 287 288 0
287 -254 -255 0
-287 254 0
-287 255 0
288 289 -290 0
288 -289 290 0
-288 -289 -290 0
-288 289 290 0
289 -256 -257 0
-289 256 0
-289 257 0
290 291 -292 0
290 -291 292 0
-290 -291 -292 0
-290 291 292 0
291 -258 -259 0
-291 258 0
-291 259 0
292 -293 294 0
292 293 -294 0
-292 293 294 0
-292 -293 -294 0
293 -260 -261 0
-293 260 0
-293 261 0
-294 -295 -297 0
-294 295 297 0
294 295 -297 0
294 -295 297 0
295 527 -296 0
295 -527 296 0
-295 -527 -296 0
-295 527 296 0
296 -536 -22 0
-296 536 0
-296 22 0
297 -528 -263 0
297 -263 -264 0
297 -528 -264 0
-297 528 264 0
-297 263 264 0
-297 528 263 0
298 5 -246 0
298 -246 -248 0
298 5 -248 0
-298 246 248 0
-298 -5 246 0
-298 -5 248 0
-299 5 244 0
-299 244 -268 0
-299 5 -268 0
299 -244 268 0
299 -5 -244 0
299 -5 268 0
300 -301 329 0
300 301 -329 0
-300 301 329 0
-300 -301 -329 0
-301 302 303 0
-301 -302 -303 0
301 -302 303 0
301 302 -303 0
302 -274 275 0
-302 274 0
-302 -275 0
-303 5 304 0
-303 -5 -304 0
303 -5 304 0
303 5 -304 0
-304 305 306 0
-304 -305 -306 0
304 -305 306 0
304 305 -306 0
305 -276 299 0
-305 276 0
-305 -299 0
-306 -5 -307 0
-306 5 307 0
306 5 -307 0
306 -5 307 0
307 308 -328 0
307 -308 328 0
-307 -308 -328 0
-307 308 328 0
308 309 -310 0
308 -309 310 0
-308 -309 -310 0
-308 309 310 0
309 -280 -298 0
-309 280 0
-309 298 0
310 311 -312 0
310 -311 312 0
-310 -311 -312 0
-310 311 312 0
311 -281 -282 0
-311 281 0
-311 282 0
312 313 -314 0
312 -313 314 0
-312 -313 -314 0
-312 313 314 0
313 -283 -284 0
-313 283 0
-313 284 0
314 315 -316 0
314 -315 316 0
-314 -315 -316 0
-314 315 316 0
315 -285 -286 0
-315 285 0
-315 286 0
316 317 -318 0
316 -317 318 0
-316 -317 -318 0
-316 317 318 0
317 -287 -288 0
-317 287 0
-317 288 0
318 319 -320 0
318 -319 320 0
-318 -319 -320 0
-318 319 320 0
319 -289 -290 0
-319 289 0
-319 290 0
320 321 -322 0
320 -321 322 0
-320 -321 -322 0
-320 321 322 0
321 -291 -292 0
-321 291 0
-321 292 0
322 -323 324 0
322 323 -324 0
-322 323 324 0
-322 -323 -324 0
323 -293 -294 0
-323 293 0
-323 294 0
-324 -325 -327 0
-324 325 327 0
324 325 -327 0
324 -325 327 0
325 526 -326 0
325 -526 326 0
-325 -526 -326 0
-325 526 326 0
326 -536 -53 0
-326 536 0
-326 53 0
327 -527 -296 0
327 -296 -297 0
327 -527 -297 0
-327 527 297 0
-327 296 297 0
-327 527 296 0
328 -5 -277 0
328 -277 -279 0
328 -5 -279 0
-328 5 279 0
-328 277 279 0
-328 5 277 0
-329 5 -271 0
-329 -271 273 0
-329 5 273 0
329 271 -273 0
329 -5 271 0
329 -5 -273 0
330 5 -331 0
330 -5 331 0
-330 -5 -331 0
-330 5 331 0
331 -332 333 0
331 332 -333 0
-331 332 333 0
-331 -332 -333 0
-332 301 329 0
332 -301 0
332 -329 0
-333 -5 -334 0
-333 5 334 0
333 5 -334 0
333 -5 334 0
334 335 -361 0
334 -335 361 0
-334 -335 -361 0
-334 335 361 0
335 5 -336 0
335 -5 336 0
-335 -5 -336 0
-335 5 336 0
336 337 -360 0
336 -337 360 0
-336 -337 -360 0
-336 337 360 0
337 338 -339 0
337 -338 339 0
-337 -338 -339 0
-337 338 339 0
338 -308 -328 0
-338 308 0
-338 328 0
339 340 -341 0
339 -340 341 0
-339 -340 -341 0
-339 340 341 0
340 -309 -310 0
-340 309 0
-340 310 0
341 342 -343 0
341 -342 343 0
-341 -342 -343 0
-341 342 343 0
342 -311 -312 0
-342 311 0
-342 312 0
343 344 -345 0
343 -344 345 0
-343 -344 -345 0
-343 344 345 0
344 -313 -314 0
-344 313 0
-344 314 0
345 346 -347 0
345 -346 347 0
-345 -346 -347 0
-345 346 347 0
346 -315 -316 0
-346 315 0
-346 316 0
347 348 -349 0
347 -348 349 0
-347 -348 -349 0
-347 348 349 0
348 -317 -318 0
-348 317 0
-348 318 0
349 350 -351 0
349 -350 351 0
-349 -350 -351 0
-349 350 351 0
350 -319 -320 0
-350 319 0
-350 320 0
351 36 -352 0
351 -36 352 0
-351 -36 -352 0
-351 36 352 0
352 353 -354 0
352 -353 354 0
-352 -353 -354 0
-352 353 354 0
353 -321 -322 0
-353 321 0
-353 322 0
354 -355 356 0
354 355 -356 0
-354 355 356 0
-354 -355 -356 0
355 -323 -324 0
-355 323 0
-355 324 0
-356 -357 -359 0
-356 357 359 0
356 357 -359 0
356 -357 359 0
357 525 -358 0
357 -525 358 0
-357 -525 -358 0
-357 525 358 0
358 -536 -105 0
-358 536 0
-358 105 0
359 -526 -326 0
359 -326 -327 0
359 -526 -327 0
-359 526 327 0
-359 326 327 0
-359 526 326 0
360 5 -305 0
360 -305 -307 0
360 5 -307 0
-360 305 307 0
-360 -5 305 0
-360 -5 307 0
361 -5 -302 0
361 -302 304 0
361 -5 304 0
-361 5 -304 0
-361 302 -304 0
-361 5 302 0
362 -363 -380 0
-362 363 0
-362 380 0
363 -364 -379 0
-363 364 0
-363 379 0
364 -365 -378 0
-364 365 0
-364 378 0
365 -366 377 0
-365 366 0
-365 -377 0
366 -367 376 0
-366 367 0
-366 -376 0
367 -368 375 0
-367 368 0
-367 -375 0
368 -369 -374 0
-368 369 0
-368 374 0
369 -370 373 0
-369 370 0
-369 -373 0
370 371 -372 0
-370 -371 0
-370 372 0
-371 16 45 0
-371 -16 -45 0
371 -16 45 0
371 16 -45 0
-372 536 538 42 0
372 -536 0
372 -42 0
372 -538 0
-373 15 79 0
-373 -15 -79 0
373 -15 79 0
373 15 -79 0
374 14 -113 0
374 -14 113 0
-374 -14 -113 0
-374 14 113 0
-375 13 144 0
-375 -13 -144 0
375 -13 144 0
375 13 -144 0
-376 12 175 0
-376 -12 -175 0
376 -12 175 0
376 12 -175 0
-377 11 205 0
-377 -11 -205 0
377 -11 205 0
377 11 -205 0
378 10 -238 0
378 -10 238 0
-378 -10 -238 0
-378 10 238 0
379 9 -270 0
379 -9 270 0
-379 -9 -270 0
-379 9 270 0
380 8 -300 0
380 -8 300 0
-380 -8 -300 0
-380 8 300 0
-381 -382 -410 0
-381 382 410 0
381 382 -410 0
381 -382 410 0
382 -383 409 0
382 383 -409 0
-382 383 409 0
-382 -383 -409 0
-383 -384 -408 0
-383 384 408 0
383 384 -408 0
383 -384 408 0
-384 385 405 0
-384 -385 -405 0
384 -385 405 0
384 385 -405 0
385 386 -387 0
385 -386 387 0
-385 -386 -387 0
-385 386 387 0
386 -340 -341 0
-386 340 0
-386 341 0
387 -388 402 0
387 388 -402 0
-387 388 402 0
-387 -388 -402 0
-388 389 399 0
-388 -389 -399 0
388 -389 399 0
388 389 -399 0
389 -390 391 0
389 390 -391 0
-389 390 391 0
-389 -390 -391 0
390 -36 -350 0
390 -350 -352 0
390 -36 -352 0
-390 350 352 0
-390 36 350 0
-390 36 352 0
-391 392 396 0
-391 -392 -396 0
391 -392 396 0
391 392 -396 0
392 -393 394 0
392 393 -394 0
-392 393 394 0
-392 -393 -394 0
393 -525 -358 0
393 -358 -359 0
393 -525 -359 0
-393 525 359 0
-393 358 359 0
-393 525 358 0
-394 -524 -395 0
-394 524 395 0
394 524 -395 0
394 -524 395 0
395 -536 -537 -28 0
-395 536 0
-395 537 0
-395 28 0
-396 397 398 0
396 -397 0
396 -398 0
397 -355 -356 0
-397 355 0
-397 356 0
398 -353 -354 0
-398 353 0
-398 354 0
-399 400 401 0
399 -400 0
399 -401 0
400 -348 -349 0
-400 348 0
-400 349 0
401 -346 -347 0
-401 346 0
-401 347 0
-402 403 404 0
402 -403 0
402 -404 0
403 -344 -345 0
-403 344 0
-403 345 0
404 -342 -343 0
-404 342 0
-404 343 0
-405 406 407 0
405 -406 0
405 -407 0
406 -338 -339 0
-406 338 0
-406 339 0
407 -337 -360 0
-407 337 0
-407 360 0
408 5 -336 -361 0
408 -5 336 361 0
-408 -336 361 0
-408 -5 -361 0
-408 5 336 0
-409 5 332 0
-409 332 -334 0
-409 5 -334 0
409 -332 334 0
409 -5 -332 0
409 -5 334 0
410 -5 -7 0
410 -7 -331 0
410 -5 -331 0
-410 5 331 0
-410 7 331 0
-410 5 7 0
-411 362 412 0
-411 -362 -412 0
411 -362 412 0
411 362 -412 0
-412 -5 -6 0
-412 5 6 0
412 5 -6 0
412 -5 6 0
413 -411 -435 0
413 414 -435 0
-413 435 0
-413 411 -414 0
414 -415 434 0
-414 415 0
-414 -434 0
415 -416 433 0
-415 416 0
-415 -433 0
416 -417 431 -432 0
-416 417 0
-416 432 0
-416 -431 0
417 -418 -430 0
-417 418 0
-417 430 0
418 -419 -429 0
-418 419 0
-418 429 0
419 -420 428 0
-419 420 0
-419 -428 0
420 -421 -427 0
-420 421 0
-420 427 0
421 -422 -426 0
-421 422 0
-421 426 0
422 -104 -423 0
-422 104 0
-422 423 0
-423 424 425 0
-423 -424 -425 0
423 -424 425 0
423 424 -425 0
-424 536 538 0
424 -536 0
424 -538 0
-425 42 29 0
-425 -5 42 0
425 -42 0
425 5 -29 0
-426 371 372 0
-426 -371 -372 0
426 -371 372 0
426 371 -372 0
-427 370 373 0
-427 -370 -373 0
427 -370 373 0
427 370 -373 0
428 369 -374 0
428 -369 374 0
-428 -369 -374 0
-428 369 374 0
-429 368 375 0
-429 -368 -375 0
429 -368 375 0
429 368 -375 0
-430 367 376 0
-430 -367 -376 0
430 -367 376 0
430 367 -376 0
431 365 -378 0
431 -365 378 0
-431 -365 -378 0
-431 365 378 0
-432 366 377 0
-432 -366 -377 0
432 -366 377 0
432 366 -377 0
433 364 -379 0
433 -364 379 0
-433 -364 -379 0
-433 364 379 0
434 363 -380 0
434 -363 380 0
-434 -363 -380 0
-434 363 380 0
-435 430 431 0
-435 -418 -430 432 0
-435 418 431 0
-435 -431 -432 0
435 418 -431 432 0
435 430 -431 432 0
435 -418 -430 431 -432 0
436 -433 -437 -522 0
436 434 -437 -522 0
-436 522 0
-436 437 0
-436 433 -434 0
437 -418 -430 -438 0
437 418 430 -438 521 0
-437 -418 430 0
-437 418 -430 0
-437 438 0
-437 430 -521 0
438 -421 -427 428 -439 0
438 421 427 -428 -439 0
-438 427 428 0
-438 -421 -428 0
-438 439 0
-438 421 -427 0
439 -104 -423 -426 -440 0
439 104 423 426 -440 0
-439 423 -426 0
-439 -104 426 0
-439 440 0
-439 104 -423 0
440 441 442 502 -517 0
440 -441 -442 502 -517 0
-440 -502 0
-440 -441 442 0
-440 517 0
-440 441 -442 0
441 -536 537 28 0
441 -537 -539 -28 0
441 536 537 -539 0
-441 -537 539 0
-441 -536 537 -28 0
-441 536 539 0
-441 -537 28 0
442 443 -498 0
442 -443 498 0
-442 -443 -498 0
-442 443 498 0
443 444 -494 0
443 -444 494 0
-443 -444 -494 0
-443 444 494 0
444 445 -490 0
444 -445 490 0
-444 -445 -490 0
-444 445 490 0
445 446 -486 0
445 -446 486 0
-445 -446 -486 0
-445 446 486 0
446 447 -482 0
446 -447 482 0
-446 -447 -482 0
-446 447 482 0
447 448 -472 0
447 -448 472 0
-447 -448 -472 0
-447 448 472 0
448 -449 -459 0
-448 449 0
-448 459 0
449 -529 -450 0
-449 529 0
-449 450 0
450 530 -451 0
450 -530 451 0
-450 -530 -451 0
-450 530 451 0
451 531 -452 0
451 -531 452 0
-451 -531 -452 0
-451 531 452 0
452 532 -453 0
452 -532 453 0
-452 -532 -453 0
-452 532 453 0
453 533 -454 0
453 -533 454 0
-453 -533 -454 0
-453 533 454 0
454 534 -455 0
454 -534 455 0
-454 -534 -455 0
-454 534 455 0
455 -535 456 0
455 535 -456 0
-455 535 456 0
-455 -535 -456 0
-456 457 458 0
-456 -457 -458 0
456 -457 458 0
456 457 -458 0
457 536 -537 0
457 -536 537 0
-457 -536 -537 0
-457 536 537 0
-458 -538 -539 0
-458 538 539 0
458 538 -539 0
458 -538 539 0
459 460 -461 0
459 -460 461 0
-459 -460 -461 0
-459 460 461 0
460 -530 -451 0
-460 530 0
-460 451 0
461 462 -463 0
461 -462 463 0
-461 -462 -463 0
-461 462 463 0
462 -531 -452 0
-462 531 0
-462 452 0
463 464 -465 0
463 -464 465 0
-463 -464 -465 0
-463 464 465 0
464 -532 -453 0
-464 532 0
-464 453 0
465 466 -467 0
465 -466 467 0
-465 -466 -467 0
-465 466 467 0
466 -533 -454 0
-466 533 0
-466 454 0
467 468 -469 0
467 -468 469 0
-467 -468 -469 0
-467 468 469 0
468 -534 -455 0
-468 534 0
-468 455 0
469 -470 471 0
469 470 -471 0
-469 470 471 0
-469 -470 -471 0
470 -535 -456 0
-470 535 0
-470 456 0
-471 536 -537 23 0
-471 536 537 28 0
-471 -536 -537 -28 0
-471 -536 537 23 0
471 536 -537 -23 0
471 -536 -537 28 0
471 536 537 -28 0
471 -536 537 -23 0
472 473 -474 0
472 -473 474 0
-472 -473 -474 0
-472 473 474 0
473 -460 -461 0
-473 460 0
-473 461 0
474 475 -476 0
474 -475 476 0
-474 -475 -476 0
-474 475 476 0
475 -462 -463 0
-475 462 0
-475 463 0
476 -477 478 0
476 477 -478 0
-476 477 478 0
-476 -477 -478 0
477 -464 -465 0
-477 464 0
-477 465 0
-478 395 479 480 481 0
478 -481 0
478 -480 0
478 -395 0
478 -479 0
479 -470 -471 0
-479 470 0
-479 471 0
480 -468 -469 0
-480 468 0
-480 469 0
481 -466 -467 0
-481 466 0
-481 467 0
482 -483 -485 0
-482 483 0
-482 485 0
483 -528 -484 0
-483 528 0
-483 484 0
484 529 -450 0
484 -529 450 0
-484 -529 -450 0
-484 529 450 0
485 449 -459 0
485 -449 459 0
-485 -449 -459 0
-485 449 459 0
486 -487 -489 0
-486 487 0
-486 489 0
487 -527 -488 0
-487 527 0
-487 488 0
488 528 -484 0
488 -528 484 0
-488 -528 -484 0
-488 528 484 0
489 483 -485 0
489 -483 485 0
-489 -483 -485 0
-489 483 485 0
490 -491 -493 0
-490 491 0
-490 493 0
491 -526 -492 0
-491 526 0
-491 492 0
492 527 -488 0
492 -527 488 0
-492 -527 -488 0
-492 527 488 0
493 487 -489 0
493 -487 489 0
-493 -487 -489 0
-493 487 489 0
494 -495 -497 0
-494 495 0
-494 497 0
495 -525 -496 0
-495 525 0
-495 496 0
496 526 -492 0
496 -526 492 0
-496 -526 -492 0
-496 526 492 0
497 491 -493 0
497 -491 493 0
-497 -491 -493 0
-497 491 493 0
498 -499 -500 0
-498 499 0
-498 500 0
499 495 -497 0
499 -495 497 0
-499 -495 -497 0
-499 495 497 0
500 -524 -501 0
-500 524 0
-500 501 0
501 525 -496 0
501 -525 496 0
-501 -525 -496 0
-501 525 496 0
502 503 -504 0
502 -503 504 0
-502 -503 -504 0
-502 503 504 0
503 -536 -105 0
503 -54 105 0
-503 54 105 0
-503 536 -105 0
504 -505 506 0
504 505 -506 0
-504 505 506 0
-504 -505 -506 0
505 -443 -498 0
-505 443 0
-505 498 0
-506 507 508 509 0
506 -509 0
506 -508 0
506 -507 0
507 -445 -490 0
-507 445 0
-507 490 0
508 -444 -494 0
-508 444 0
-508 494 0
-509 510 511 512 0
509 -512 0
509 -511 0
509 -510 0
510 -447 -482 0
-510 447 0
-510 482 0
511 -446 -486 0
-511 446 0
-511 486 0
-512 513 514 515 516 0
512 -516 0
512 -515 0
512 -513 0
512 -514 0
513 -477 -478 0
-513 477 0
-513 478 0
514 -475 -476 0
-514 475 0
-514 476 0
515 -473 -474 0
-515 473 0
-515 474 0
516 -448 -472 0
-516 448 0
-516 472 0
-517 524 519 0
-517 -524 518 -519 0
-517 524 -518 501 0
-517 501 519 0
-517 518 -501 -519 0
-517 -524 -518 -501 0
517 -524 518 -501 519 0
517 524 -518 -501 -519 0
517 524 518 501 -519 0
517 -524 -518 501 -519 0
518 -539 -5 27 0
518 36 -5 27 0
-518 5 0
-518 -27 0
-518 539 -36 0
519 -499 520 0
519 499 -520 0
-519 499 520 0
-519 -499 -520 0
-520 538 539 0
-520 -538 -539 0
-520 536 537 539 0
520 538 -539 0
520 -536 -538 539 0
520 -537 -538 539 0
-521 419 429 0
521 -419 0
521 -429 0
522 3 -523 0
522 -415 434 0
522 3 -415 0
-522 415 523 0
-522 -3 -434 0
-522 -3 415 0
523 416 -434 0
-523 -416 0
-523 434 0
-540 0
-2 0

